\Problem name: 

Minimize
OBJROW: t(2) + t(1) + t(0)
Subject To
K(0):  t(1) + 7 t(0) >= 1
K(1):  3 t(1) + t(0) >= 1
K(2):  9 t(2) + 3 t(1) + 10 t(0) >= 1
K(3):  11 t(2) + 3 t(1) + 9 t(0) >= 1
K(4):  2 t(2) + 3 t(1) >= 1
K(5):  8 t(2) + 2 t(1) >= 1
Bounds
End
